sat
(model
(define-fun |label_order(nWeight(1),1)| () Bool true)
(define-fun |required(ezcsp__leq(nWeight(2),ezcsp__mn(ezcsp__pl(81,10),10)))| () Bool false)
(define-fun |leaf(8)| () Bool true)
(define-fun |leafPos(3,3)| () Bool false)
(define-fun 166 () Bool true)
(define-fun |required(ezcsp__leq(nWeight(6),ezcsp__mn(ezcsp__pl(83,53),53)))| () Bool false)
(define-fun |required(ezcsp__eq(nWeight(2),116))| () Bool false)
(define-fun |required(ezcsp__eq(nWeight(5),ezcsp__pl(nWeight(4),19)))| () Bool false)
(define-fun |posColor(4,green)| () Bool false)
(define-fun |required(ezcsp__eq(nWeight(6),80))| () Bool false)
(define-fun |required(ezcsp__leq(nWeight(6),ezcsp__mn(ezcsp__pl(52,94),52)))| () Bool false)
(define-fun |leafPos(1,2)| () Bool false)
(define-fun |required(ezcsp__gt(nWeight(3),ezcsp__mn(ezcsp__pl(97,77),77)))| () Bool false)
(define-fun |required(ezcsp__eq(nWeight(1),29))| () Bool false)
(define-fun |required(ezcsp__gt(nWeight(6),ezcsp__mn(ezcsp__pl(83,53),53)))| () Bool false)
(define-fun |required(ezcsp__leq(nWeight(6),ezcsp__mn(ezcsp__pl(81,10),10)))| () Bool false)
(define-fun |required(ezcsp__leq(nWeight(3),ezcsp__mn(ezcsp__pl(97,77),77)))| () Bool false)
(define-fun |posColor(3,green)| () Bool false)
(define-fun |location(4)| () Bool true)
(define-fun |posColor(3,blue)| () Bool true)
(define-fun |leafPos(1,7)| () Bool false)
(define-fun |required(ezcsp__leq(nWeight(6),ezcsp__mn(ezcsp__pl(72,0),0)))| () Bool false)
(define-fun |required(ezcsp__gt(nWeight(4),ezcsp__mn(ezcsp__pl(72,0),0)))| () Bool false)
(define-fun |required(ezcsp__eq(nWeight(2),ezcsp__pl(nWeight(1),34)))| () Bool false)
(define-fun |posColor(1,red)| () Bool false)
(define-fun |leafWeightCardinality(6,72,0)| () Bool true)
(define-fun |posColor(3,red)| () Bool false)
(define-fun |required(ezcsp__eq(nWeight(4),91))| () Bool false)
(define-fun |posColor(7,green)| () Bool true)
(define-fun |required(ezcsp__eq(nWeight(4),ezcsp__pl(nWeight(3),19)))| () Bool false)
(define-fun |leafPos(5,7)| () Bool false)
(define-fun |leafWeightCardinality(4,97,77)| () Bool true)
(define-fun |required(ezcsp__eq(nWeight(1),96))| () Bool false)
(define-fun |label_order(nWeight(2),1)| () Bool true)
(define-fun |leafPos(5,0)| () Bool false)
(define-fun |required(ezcsp__eq(nWeight(1),93))| () Bool false)
(define-fun |required(ezcsp__eq(nWeight(6),116))| () Bool false)
(define-fun |required(ezcsp__gt(nWeight(5),ezcsp__mn(ezcsp__pl(72,0),0)))| () Bool false)
(define-fun |leafPos(6,3)| () Bool true)
(define-fun |leafPos(8,6)| () Bool false)
(define-fun 449 () Bool false)
(define-fun |required(ezcsp__leq(nWeight(6),ezcsp__mn(ezcsp__pl(77,3),3)))| () Bool false)
(define-fun |innerNode(3)| () Bool true)
(define-fun 443 () Bool false)
(define-fun 442 () Bool false)
(define-fun 441 () Bool false)
(define-fun 440 () Bool false)
(define-fun 447 () Bool false)
(define-fun 446 () Bool false)
(define-fun 445 () Bool false)
(define-fun |leafPos(7,3)| () Bool false)
(define-fun |leafPos(2,7)| () Bool false)
(define-fun 108 () Bool true)
(define-fun 109 () Bool true)
(define-fun |required(ezcsp__eq(nWeight(5),146))| () Bool false)
(define-fun |required(ezcsp__eq(nWeight(2),ezcsp__pl(nWeight(1),0)))| () Bool false)
(define-fun |required(ezcsp__eq(nWeight(6),91))| () Bool false)
(define-fun |cspvar(nWeight(4),0,542)| () Bool true)
(define-fun |required(ezcsp__leq(nWeight(4),ezcsp__mn(ezcsp__pl(77,3),3)))| () Bool false)
(define-fun |required(ezcsp__leq(nWeight(3),ezcsp__mn(ezcsp__pl(77,3),3)))| () Bool true)
(define-fun |required(ezcsp__gt(nWeight(1),ezcsp__mn(ezcsp__pl(83,53),53)))| () Bool false)
(define-fun |leafPos(4,5)| () Bool false)
(define-fun 438 () Bool false)
(define-fun 439 () Bool false)
(define-fun 436 () Bool false)
(define-fun 437 () Bool false)
(define-fun 434 () Bool false)
(define-fun 435 () Bool false)
(define-fun 432 () Bool false)
(define-fun 433 () Bool false)
(define-fun 430 () Bool false)
(define-fun 431 () Bool false)
(define-fun |innerNode(7)| () Bool true)
(define-fun |leafPos(2,0)| () Bool false)
(define-fun |required(ezcsp__leq(nWeight(4),ezcsp__mn(ezcsp__pl(19,24),19)))| () Bool false)
(define-fun |required(ezcsp__eq(nWeight(1),72))| () Bool false)
(define-fun |cspvar(nWeight(3),0,542)| () Bool true)
(define-fun |required(ezcsp__leq(nWeight(2),ezcsp__mn(ezcsp__pl(82,34),34)))| () Bool false)
(define-fun |required(ezcsp__eq(nWeight(1),117))| () Bool false)
(define-fun |cspvar(nWeight(7),0,542)| () Bool true)
(define-fun |posColor(6,green)| () Bool false)
(define-fun |required(ezcsp__eq(nWeight(2),174))| () Bool false)
(define-fun |required(ezcsp__gt(nWeight(5),ezcsp__mn(ezcsp__pl(82,34),34)))| () Bool false)
(define-fun |required(ezcsp__eq(nWeight(4),43))| () Bool false)
(define-fun |required(ezcsp__leq(nWeight(5),ezcsp__mn(ezcsp__pl(52,94),52)))| () Bool false)
(define-fun |required(ezcsp__leq(nWeight(5),ezcsp__mn(ezcsp__pl(81,10),10)))| () Bool false)
(define-fun |required(ezcsp__eq(nWeight(1),75))| () Bool false)
(define-fun |posColor(6,red)| () Bool false)
(define-fun |required(ezcsp__eq(nWeight(1),131))| () Bool false)
(define-fun |color(red)| () Bool true)
(define-fun 99 () Bool true)
(define-fun 98 () Bool true)
(define-fun |required(ezcsp__leq(nWeight(5),ezcsp__mn(ezcsp__pl(83,53),53)))| () Bool true)
(define-fun |required(ezcsp__eq(nWeight(3),72))| () Bool false)
(define-fun |required(ezcsp__eq(nWeight(7),91))| () Bool false)
(define-fun |required(ezcsp__eq(nWeight(3),ezcsp__pl(nWeight(2),53)))| () Bool false)
(define-fun |leafPos(3,7)| () Bool false)
(define-fun |posColor(7,blue)| () Bool false)
(define-fun |required(ezcsp__gt(nWeight(6),ezcsp__mn(ezcsp__pl(72,0),0)))| () Bool false)
(define-fun |required(ezcsp__leq(nWeight(5),ezcsp__mn(ezcsp__pl(19,24),19)))| () Bool false)
(define-fun |required(ezcsp__gt(nWeight(5),ezcsp__mn(ezcsp__pl(81,10),10)))| () Bool false)
(define-fun |cspvar(nWeight(1),0,542)| () Bool true)
(define-fun |location(0)| () Bool true)
(define-fun |required(ezcsp__eq(nWeight(1),92))| () Bool false)
(define-fun |required(ezcsp__leq(nWeight(1),ezcsp__mn(ezcsp__pl(83,53),53)))| () Bool false)
(define-fun 146 () Bool true)
(define-fun 147 () Bool true)
(define-fun |required(ezcsp__eq(nWeight(1),55))| () Bool false)
(define-fun |leafPos(5,3)| () Bool false)
(define-fun |required(ezcsp__gt(nWeight(2),ezcsp__mn(ezcsp__pl(19,24),19)))| () Bool false)
(define-fun |leafPos(6,0)| () Bool false)
(define-fun |required(ezcsp__eq(nWeight(3),43))| () Bool false)
(define-fun |leafPos(8,3)| () Bool false)
(define-fun |leafPos(4,1)| () Bool true)
(define-fun |required(ezcsp__eq(nWeight(5),ezcsp__pl(nWeight(4),10)))| () Bool true)
(define-fun |posColor(1,green)| () Bool false)
(define-fun |leafPos(7,6)| () Bool false)
(define-fun |required(ezcsp__eq(nWeight(3),174))| () Bool false)
(define-fun |required(ezcsp__eq(nWeight(7),80))| () Bool false)
(define-fun |leafPos(2,4)| () Bool false)
(define-fun |required(ezcsp__eq(nWeight(1),133))| () Bool false)
(define-fun |coloredPos(2)| () Bool true)
(define-fun |required(ezcsp__gt(nWeight(5),ezcsp__mn(ezcsp__pl(52,94),52)))| () Bool false)
(define-fun |required(ezcsp__eq(nWeight(1),91))| () Bool false)
(define-fun 129 () Bool true)
(define-fun 139 () Bool true)
(define-fun 138 () Bool true)
(define-fun 490 () Bool false)
(define-fun 491 () Bool false)
(define-fun |leaf(7)| () Bool true)
(define-fun |required(ezcsp__eq(nWeight(1),115))| () Bool false)
(define-fun |required(ezcsp__eq(nWeight(7),ezcsp__pl(nWeight(6),3)))| () Bool false)
(define-fun |required(ezcsp__leq(nWeight(1),ezcsp__mn(ezcsp__pl(19,24),19)))| () Bool false)
(define-fun |leafPos(4,6)| () Bool false)
(define-fun |leafPos(7,2)| () Bool false)
(define-fun |required(ezcsp__eq(nWeight(1),134))| () Bool false)
(define-fun |required(ezcsp__eq(nWeight(6),ezcsp__pl(nWeight(5),3)))| () Bool false)
(define-fun |posColor(2,green)| () Bool true)
(define-fun |required(ezcsp__eq(nWeight(5),ezcsp__pl(nWeight(4),3)))| () Bool false)
(define-fun |posColor(5,green)| () Bool false)
(define-fun |leafWeightCardinality(3,52,94)| () Bool true)
(define-fun |required(ezcsp__eq(nWeight(1),77))| () Bool false)
(define-fun |required(ezcsp__eq(nWeight(4),146))| () Bool false)
(define-fun |posColor(7,red)| () Bool false)
(define-fun |required(ezcsp__leq(nWeight(1),ezcsp__mn(ezcsp__pl(82,34),34)))| () Bool false)
(define-fun |required(ezcsp__leq(nWeight(6),ezcsp__mn(ezcsp__pl(19,24),19)))| () Bool false)
(define-fun |leafWeightCardinality(1,81,10)| () Bool true)
(define-fun |required(ezcsp__leq(nWeight(2),ezcsp__mn(ezcsp__pl(19,24),19)))| () Bool false)
(define-fun |required(ezcsp__eq(nWeight(2),146))| () Bool false)
(define-fun |innerNode(4)| () Bool true)
(define-fun |required(ezcsp__gt(nWeight(1),ezcsp__mn(ezcsp__pl(97,77),77)))| () Bool false)
(define-fun |required(ezcsp__eq(nWeight(2),ezcsp__pl(nWeight(1),53)))| () Bool false)
(define-fun 88 () Bool true)
(define-fun 89 () Bool true)
(define-fun |required(ezcsp__eq(nWeight(4),ezcsp__pl(nWeight(3),52)))| () Bool false)
(define-fun |location(7)| () Bool true)
(define-fun |required(ezcsp__gt(nWeight(4),ezcsp__mn(ezcsp__pl(83,53),53)))| () Bool false)
(define-fun |leafPos(1,6)| () Bool false)
(define-fun |leafPos(3,2)| () Bool false)
(define-fun |required(ezcsp__eq(nWeight(3),ezcsp__pl(nWeight(2),0)))| () Bool true)
(define-fun |required(ezcsp__leq(nWeight(1),ezcsp__mn(ezcsp__pl(77,3),3)))| () Bool false)
(define-fun 171 () Bool true)
(define-fun |required(ezcsp__eq(nWeight(6),ezcsp__pl(nWeight(5),19)))| () Bool false)
(define-fun |required(ezcsp__gt(nWeight(6),ezcsp__mn(ezcsp__pl(19,24),19)))| () Bool false)
(define-fun |required(ezcsp__eq(nWeight(3),80))| () Bool false)
(define-fun |required(ezcsp__leq(nWeight(2),ezcsp__mn(ezcsp__pl(97,77),77)))| () Bool false)
(define-fun |required(ezcsp__eq(nWeight(1),19))| () Bool false)
(define-fun |required(ezcsp__eq(nWeight(1),105))| () Bool false)
(define-fun |label_order(nWeight(7),1)| () Bool true)
(define-fun |required(ezcsp__gt(nWeight(5),ezcsp__mn(ezcsp__pl(97,77),77)))| () Bool false)
(define-fun |cspvar(nWeight(5),0,542)| () Bool true)
(define-fun |leafPos(5,6)| () Bool true)
(define-fun |required(ezcsp__eq(nWeight(1),53))| () Bool false)
(define-fun |required(ezcsp__eq(nWeight(5),72))| () Bool false)
(define-fun |required(ezcsp__eq(nWeight(3),116))| () Bool false)
(define-fun |leafPos(8,7)| () Bool true)
(define-fun 458 () Bool false)
(define-fun 459 () Bool false)
(define-fun |required(ezcsp__gt(nWeight(3),ezcsp__mn(ezcsp__pl(52,94),52)))| () Bool false)
(define-fun 450 () Bool false)
(define-fun 451 () Bool false)
(define-fun 452 () Bool false)
(define-fun 453 () Bool false)
(define-fun 454 () Bool false)
(define-fun 455 () Bool true)
(define-fun 456 () Bool false)
(define-fun 457 () Bool false)
(define-fun |required(ezcsp__gt(nWeight(6),ezcsp__mn(ezcsp__pl(97,77),77)))| () Bool false)
(define-fun 172 () Bool true)
(define-fun |required(ezcsp__eq(nWeight(1),71))| () Bool false)
(define-fun |required(ezcsp__eq(nWeight(1),146))| () Bool false)
(define-fun |required(ezcsp__leq(nWeight(3),ezcsp__mn(ezcsp__pl(82,34),34)))| () Bool false)
(define-fun |leafPos(6,5)| () Bool false)
(define-fun |required(ezcsp__gt(nWeight(3),ezcsp__mn(ezcsp__pl(82,34),34)))| () Bool false)
(define-fun |leafPos(4,2)| () Bool false)
(define-fun |required(ezcsp__eq(nWeight(1),97))| () Bool false)
(define-fun |required(ezcsp__eq(nWeight(1),135))| () Bool false)
(define-fun |leafPos(2,1)| () Bool false)
(define-fun |required(ezcsp__gt(nWeight(3),ezcsp__mn(ezcsp__pl(72,0),0)))| () Bool false)
(define-fun |required(ezcsp__leq(nWeight(1),ezcsp__mn(ezcsp__pl(81,10),10)))| () Bool false)
(define-fun |required(ezcsp__eq(nWeight(1),136))| () Bool false)
(define-fun |required(ezcsp__leq(nWeight(4),ezcsp__mn(ezcsp__pl(82,34),34)))| () Bool false)
(define-fun |cspvar(nWeight(6),0,542)| () Bool true)
(define-fun |required(ezcsp__gt(nWeight(2),ezcsp__mn(ezcsp__pl(83,53),53)))| () Bool false)
(define-fun |required(ezcsp__eq(nWeight(1),38))| () Bool false)
(define-fun |leaf(4)| () Bool true)
(define-fun |required(ezcsp__gt(nWeight(2),ezcsp__mn(ezcsp__pl(77,3),3)))| () Bool false)
(define-fun |required(ezcsp__gt(nWeight(4),ezcsp__mn(ezcsp__pl(77,3),3)))| () Bool false)
(define-fun |leafPos(7,5)| () Bool false)
(define-fun |required(ezcsp__eq(nWeight(1),149))| () Bool false)
(define-fun |required(ezcsp__eq(nWeight(3),ezcsp__pl(nWeight(2),52)))| () Bool false)
(define-fun |required(ezcsp__eq(nWeight(7),174))| () Bool false)
(define-fun |required(ezcsp__gt(nWeight(5),ezcsp__mn(ezcsp__pl(19,24),19)))| () Bool false)
(define-fun |leafPos(1,1)| () Bool false)
(define-fun |leafPos(3,1)| () Bool false)
(define-fun |coloredPos(7)| () Bool true)
(define-fun |required(ezcsp__eq(nWeight(7),116))| () Bool true)
(define-fun |leafPos(3,6)| () Bool false)
(define-fun |required(ezcsp__eq(nWeight(7),136))| () Bool false)
(define-fun |required(ezcsp__leq(nWeight(2),ezcsp__mn(ezcsp__pl(83,53),53)))| () Bool false)
(define-fun |required(ezcsp__leq(nWeight(4),ezcsp__mn(ezcsp__pl(52,94),52)))| () Bool false)
(define-fun |required(ezcsp__gt(nWeight(6),ezcsp__mn(ezcsp__pl(82,34),34)))| () Bool true)
(define-fun |required(ezcsp__eq(nWeight(5),136))| () Bool false)
(define-fun |required(ezcsp__eq(nWeight(2),91))| () Bool false)
(define-fun |posColor(6,blue)| () Bool true)
(define-fun |required(ezcsp__eq(nWeight(6),ezcsp__pl(nWeight(5),53)))| () Bool true)
(define-fun |required(ezcsp__eq(nWeight(1),81))| () Bool false)
(define-fun |required(ezcsp__eq(nWeight(5),ezcsp__pl(nWeight(4),77)))| () Bool false)
(define-fun |required(ezcsp__eq(nWeight(6),72))| () Bool false)
(define-fun 78 () Bool true)
(define-fun |required(ezcsp__eq(nWeight(1),82))| () Bool false)
(define-fun |required(ezcsp__leq(nWeight(1),ezcsp__mn(ezcsp__pl(52,94),52)))| () Bool false)
(define-fun |required(ezcsp__leq(nWeight(4),ezcsp__mn(ezcsp__pl(81,10),10)))| () Bool true)
(define-fun |location(3)| () Bool true)
(define-fun |posColor(5,blue)| () Bool true)
(define-fun |required(ezcsp__eq(nWeight(4),80))| () Bool false)
(define-fun |posColor(2,blue)| () Bool false)
(define-fun |leafCost(4,77)| () Bool true)
(define-fun |required(ezcsp__leq(nWeight(2),ezcsp__mn(ezcsp__pl(72,0),0)))| () Bool true)
(define-fun |required(ezcsp__eq(nWeight(6),ezcsp__pl(nWeight(5),52)))| () Bool false)
(define-fun |required(ezcsp__eq(nWeight(1),130))| () Bool false)
(define-fun |leafPos(5,2)| () Bool false)
(define-fun |required(ezcsp__leq(nWeight(5),ezcsp__mn(ezcsp__pl(77,3),3)))| () Bool false)
(define-fun |required(ezcsp__eq(nWeight(3),ezcsp__pl(nWeight(2),19)))| () Bool false)
(define-fun |required(ezcsp__eq(nWeight(4),ezcsp__pl(nWeight(3),53)))| () Bool false)
(define-fun |required(ezcsp__eq(nWeight(1),111))| () Bool false)
(define-fun |leafPos(6,1)| () Bool false)
(define-fun |required(ezcsp__gt(nWeight(3),ezcsp__mn(ezcsp__pl(83,53),53)))| () Bool false)
(define-fun |required(ezcsp__eq(nWeight(1),158))| () Bool false)
(define-fun |leafPos(8,0)| () Bool false)
(define-fun |required(ezcsp__gt(nWeight(3),ezcsp__mn(ezcsp__pl(77,3),3)))| () Bool false)
(define-fun |required(ezcsp__eq(nWeight(5),43))| () Bool false)
(define-fun |required(ezcsp__eq(nWeight(1),116))| () Bool false)
(define-fun |required(ezcsp__eq(nWeight(7),ezcsp__pl(nWeight(6),77)))| () Bool false)
(define-fun |leafPos(7,1)| () Bool false)
(define-fun |coloredPos(3)| () Bool true)
(define-fun |leafPos(2,5)| () Bool false)
(define-fun |required(ezcsp__eq(nWeight(7),ezcsp__pl(nWeight(6),53)))| () Bool false)
(define-fun |required(ezcsp__eq(nWeight(3),136))| () Bool false)
(define-fun |required(ezcsp__leq(nWeight(4),ezcsp__mn(ezcsp__pl(83,53),53)))| () Bool false)
(define-fun |required(ezcsp__leq(nWeight(3),ezcsp__mn(ezcsp__pl(83,53),53)))| () Bool false)
(define-fun |required(ezcsp__eq(nWeight(4),174))| () Bool false)
(define-fun |leaf(1)| () Bool true)
(define-fun 128 () Bool true)
(define-fun |required(ezcsp__eq(nWeight(1),150))| () Bool false)
(define-fun |required(ezcsp__eq(nWeight(7),ezcsp__pl(nWeight(6),10)))| () Bool false)
(define-fun 69 () Bool false)
(define-fun |required(ezcsp__eq(nWeight(5),91))| () Bool false)
(define-fun |required(ezcsp__eq(nWeight(1),84))| () Bool false)
(define-fun |label_order(nWeight(4),1)| () Bool true)
(define-fun |leafPos(4,7)| () Bool false)
(define-fun |required(ezcsp__leq(nWeight(6),ezcsp__mn(ezcsp__pl(97,77),77)))| () Bool false)
(define-fun |required(ezcsp__eq(nWeight(5),116))| () Bool false)
(define-fun |color(blue)| () Bool true)
(define-fun |label_order(nWeight(5),1)| () Bool true)
(define-fun |required(ezcsp__gt(nWeight(2),ezcsp__mn(ezcsp__pl(72,0),0)))| () Bool false)
(define-fun |required(ezcsp__gt(nWeight(1),ezcsp__mn(ezcsp__pl(52,94),52)))| () Bool false)
(define-fun 448 () Bool false)
(define-fun |posColor(5,red)| () Bool false)
(define-fun |required(ezcsp__eq(nWeight(2),43))| () Bool true)
(define-fun |required(ezcsp__gt(nWeight(2),ezcsp__mn(ezcsp__pl(52,94),52)))| () Bool false)
(define-fun |leafCost(8,34)| () Bool true)
(define-fun |coloredPos(4)| () Bool true)
(define-fun |innerNode(5)| () Bool true)
(define-fun |required(ezcsp__leq(nWeight(1),ezcsp__mn(ezcsp__pl(72,0),0)))| () Bool false)
(define-fun |required(ezcsp__gt(nWeight(2),ezcsp__mn(ezcsp__pl(81,10),10)))| () Bool false)
(define-fun |required(ezcsp__gt(nWeight(4),ezcsp__mn(ezcsp__pl(19,24),19)))| () Bool false)
(define-fun |required(ezcsp__eq(nWeight(5),80))| () Bool false)
(define-fun |color(green)| () Bool true)
(define-fun 444 () Bool false)
(define-fun |leafPos(3,5)| () Bool false)
(define-fun |required(ezcsp__eq(nWeight(1),83))| () Bool false)
(define-fun |required(ezcsp__eq(nWeight(7),ezcsp__pl(nWeight(6),34)))| () Bool false)
(define-fun |required(ezcsp__leq(nWeight(5),ezcsp__mn(ezcsp__pl(72,0),0)))| () Bool false)
(define-fun |leafPos(1,5)| () Bool true)
(define-fun |required(ezcsp__eq(nWeight(1),102))| () Bool false)
(define-fun |num(8)| () Bool true)
(define-fun 151 () Bool true)
(define-fun |required(ezcsp__eq(nWeight(2),ezcsp__pl(nWeight(1),10)))| () Bool false)
(define-fun |leafPos(8,4)| () Bool false)
(define-fun 67 () Bool true)
(define-fun 68 () Bool true)
(define-fun |max_total_weight(542)| () Bool true)
(define-fun |leafPos(5,5)| () Bool false)
(define-fun |required(ezcsp__gt(nWeight(4),ezcsp__mn(ezcsp__pl(52,94),52)))| () Bool false)
(define-fun |location(6)| () Bool true)
(define-fun |required(ezcsp__eq(nWeight(1),159))| () Bool false)
(define-fun |required(ezcsp__eq(nWeight(4),136))| () Bool false)
(define-fun |required(ezcsp__gt(nWeight(6),ezcsp__mn(ezcsp__pl(77,3),3)))| () Bool false)
(define-fun 469 () Bool false)
(define-fun 468 () Bool false)
(define-fun |cspvar(nWeight(2),0,542)| () Bool true)
(define-fun 465 () Bool false)
(define-fun 464 () Bool false)
(define-fun 467 () Bool false)
(define-fun 466 () Bool false)
(define-fun 461 () Bool false)
(define-fun 460 () Bool false)
(define-fun 463 () Bool false)
(define-fun 462 () Bool false)
(define-fun |required(ezcsp__eq(nWeight(2),ezcsp__pl(nWeight(1),77)))| () Bool false)
(define-fun |required(ezcsp__eq(nWeight(1),22))| () Bool false)
(define-fun 167 () Bool true)
(define-fun |required(ezcsp__gt(nWeight(6),ezcsp__mn(ezcsp__pl(81,10),10)))| () Bool false)
(define-fun 161 () Bool true)
(define-fun 162 () Bool true)
(define-fun |leafPos(6,4)| () Bool false)
(define-fun |required(ezcsp__eq(nWeight(6),136))| () Bool false)
(define-fun |required(ezcsp__eq(nWeight(1),107))| () Bool false)
(define-fun |leafPos(6,6)| () Bool false)
(define-fun |required(ezcsp__eq(nWeight(5),ezcsp__pl(nWeight(4),53)))| () Bool false)
(define-fun |required(ezcsp__leq(nWeight(3),ezcsp__mn(ezcsp__pl(72,0),0)))| () Bool false)
(define-fun |required(ezcsp__eq(nWeight(1),85))| () Bool false)
(define-fun |leafPos(4,3)| () Bool false)
(define-fun |innerNode(1)| () Bool true)
(define-fun |leafPos(2,2)| () Bool true)
(define-fun |leafWeightCardinality(5,83,53)| () Bool true)
(define-fun |required(ezcsp__gt(nWeight(3),ezcsp__mn(ezcsp__pl(19,24),19)))| () Bool false)
(define-fun |required(ezcsp__eq(nWeight(6),146))| () Bool false)
(define-fun |required(ezcsp__gt(nWeight(1),ezcsp__mn(ezcsp__pl(81,10),10)))| () Bool false)
(define-fun |leafCost(2,19)| () Bool true)
(define-fun |leafCost(7,3)| () Bool true)
(define-fun |leaf(5)| () Bool true)
(define-fun |leafWeightCardinality(7,77,3)| () Bool true)
(define-fun |required(ezcsp__gt(nWeight(5),ezcsp__mn(ezcsp__pl(83,53),53)))| () Bool false)
(define-fun |leafPos(7,4)| () Bool true)
(define-fun |required(ezcsp__leq(nWeight(5),ezcsp__mn(ezcsp__pl(97,77),77)))| () Bool false)
(define-fun |required(ezcsp__eq(nWeight(6),ezcsp__pl(nWeight(5),0)))| () Bool false)
(define-fun |leafWeightCardinality(8,82,34)| () Bool true)
(define-fun |required(ezcsp__eq(nWeight(3),91))| () Bool false)
(define-fun |required(ezcsp__eq(nWeight(1),86))| () Bool false)
(define-fun |leafWeightCardinality(2,19,24)| () Bool true)
(define-fun |leafPos(3,0)| () Bool true)
(define-fun |required(ezcsp__eq(nWeight(1),160))| () Bool false)
(define-fun |required(ezcsp__eq(nWeight(2),ezcsp__pl(nWeight(1),52)))| () Bool false)
(define-fun |required(ezcsp__eq(nWeight(1),101))| () Bool false)
(define-fun |required(ezcsp__eq(nWeight(1),154))| () Bool false)
(define-fun |required(ezcsp__gt(nWeight(6),ezcsp__mn(ezcsp__pl(52,94),52)))| () Bool false)
(define-fun |required(ezcsp__eq(nWeight(3),ezcsp__pl(nWeight(2),10)))| () Bool false)
(define-fun |posColor(2,red)| () Bool false)
(define-fun |required(ezcsp__eq(nWeight(5),ezcsp__pl(nWeight(4),34)))| () Bool false)
(define-fun |required(ezcsp__eq(nWeight(4),ezcsp__pl(nWeight(3),3)))| () Bool true)
(define-fun |location(5)| () Bool true)
(define-fun |required(ezcsp__leq(nWeight(6),ezcsp__mn(ezcsp__pl(82,34),34)))| () Bool false)
(define-fun |required(ezcsp__eq(nWeight(5),174))| () Bool false)
(define-fun |leafPos(1,0)| () Bool false)
(define-fun |required(ezcsp__eq(nWeight(4),116))| () Bool false)
(define-fun |required(ezcsp__eq(nWeight(6),ezcsp__pl(nWeight(5),10)))| () Bool false)
(define-fun |location(2)| () Bool true)
(define-fun |required(ezcsp__leq(nWeight(3),ezcsp__mn(ezcsp__pl(19,24),19)))| () Bool false)
(define-fun |required(ezcsp__gt(nWeight(3),ezcsp__mn(ezcsp__pl(81,10),10)))| () Bool false)
(define-fun |label_order(nWeight(6),1)| () Bool true)
(define-fun |required(ezcsp__eq(nWeight(3),ezcsp__pl(nWeight(2),3)))| () Bool false)
(define-fun |required(ezcsp__eq(nWeight(1),124))| () Bool false)
(define-fun |required(ezcsp__eq(nWeight(4),ezcsp__pl(nWeight(3),0)))| () Bool false)
(define-fun |required(ezcsp__eq(nWeight(6),ezcsp__pl(nWeight(5),77)))| () Bool false)
(define-fun |required(ezcsp__eq(nWeight(1),106))| () Bool false)
(define-fun |posColor(4,red)| () Bool false)
(define-fun |leafPos(5,1)| () Bool false)
(define-fun |required(ezcsp__eq(nWeight(7),ezcsp__pl(nWeight(6),52)))| () Bool false)
(define-fun |leafPos(6,2)| () Bool false)
(define-fun |leafPos(8,1)| () Bool false)
(define-fun |leafPos(7,0)| () Bool false)
(define-fun |required(ezcsp__eq(nWeight(3),ezcsp__pl(nWeight(2),34)))| () Bool false)
(define-fun |required(ezcsp__eq(nWeight(7),ezcsp__pl(nWeight(6),0)))| () Bool false)
(define-fun |leaf(2)| () Bool true)
(define-fun |required(ezcsp__leq(nWeight(3),ezcsp__mn(ezcsp__pl(81,10),10)))| () Bool false)
(define-fun |leafPos(2,6)| () Bool false)
(define-fun 119 () Bool true)
(define-fun 118 () Bool true)
(define-fun |required(ezcsp__leq(nWeight(2),ezcsp__mn(ezcsp__pl(77,3),3)))| () Bool false)
(define-fun |required(ezcsp__eq(nWeight(2),ezcsp__pl(nWeight(1),3)))| () Bool false)
(define-fun |posColor(1,blue)| () Bool true)
(define-fun |required(ezcsp__eq(nWeight(5),ezcsp__pl(nWeight(4),0)))| () Bool false)
(define-fun |leafPos(4,4)| () Bool false)
(define-fun 429 () Bool false)
(define-fun 428 () Bool false)
(define-fun |required(ezcsp__gt(nWeight(4),ezcsp__mn(ezcsp__pl(82,34),34)))| () Bool false)
(define-fun |required(ezcsp__gt(nWeight(1),ezcsp__mn(ezcsp__pl(72,0),0)))| () Bool false)
(define-fun |posColor(4,blue)| () Bool true)
(define-fun 427 () Bool true)
(define-fun |leafCost(6,0)| () Bool true)
(define-fun |required(ezcsp__eq(nWeight(4),ezcsp__pl(nWeight(3),34)))| () Bool false)
(define-fun |required(ezcsp__eq(nWeight(1),62))| () Bool false)
(define-fun |required(ezcsp__gt(nWeight(4),ezcsp__mn(ezcsp__pl(97,77),77)))| () Bool false)
(define-fun |required(ezcsp__eq(nWeight(1),87))| () Bool false)
(define-fun |required(ezcsp__eq(nWeight(2),80))| () Bool false)
(define-fun |required(ezcsp__eq(nWeight(1),100))| () Bool false)
(define-fun |required(ezcsp__gt(nWeight(2),ezcsp__mn(ezcsp__pl(82,34),34)))| () Bool false)
(define-fun |required(ezcsp__eq(nWeight(1),80))| () Bool false)
(define-fun |innerNode(6)| () Bool true)
(define-fun |coloredPos(5)| () Bool true)
(define-fun |required(ezcsp__gt(nWeight(1),ezcsp__mn(ezcsp__pl(19,24),19)))| () Bool true)
(define-fun |required(ezcsp__eq(nWeight(7),ezcsp__pl(nWeight(6),19)))| () Bool false)
(define-fun |required(ezcsp__leq(nWeight(3),ezcsp__mn(ezcsp__pl(52,94),52)))| () Bool false)
(define-fun |leaf(3)| () Bool true)
(define-fun |leafPos(1,3)| () Bool false)
(define-fun |leafPos(3,4)| () Bool false)
(define-fun |leafPos(1,4)| () Bool false)
(define-fun |label_order(nWeight(3),1)| () Bool true)
(define-fun |required(ezcsp__eq(nWeight(3),ezcsp__pl(nWeight(2),77)))| () Bool false)
(define-fun |leafCost(3,52)| () Bool true)
(define-fun 79 () Bool true)
(define-fun |required(ezcsp__gt(nWeight(4),ezcsp__mn(ezcsp__pl(81,10),10)))| () Bool false)
(define-fun |leafPos(8,5)| () Bool false)
(define-fun |required(ezcsp__leq(nWeight(1),ezcsp__mn(ezcsp__pl(97,77),77)))| () Bool false)
(define-fun |leafCost(1,10)| () Bool true)
(define-fun |required(ezcsp__eq(nWeight(7),43))| () Bool false)
(define-fun |required(ezcsp__gt(nWeight(2),ezcsp__mn(ezcsp__pl(97,77),77)))| () Bool false)
(define-fun |required(ezcsp__sum(list(nWeight,1),ezcsp__leq,542))| () Bool true)
(define-fun |coloredPos(6)| () Bool true)
(define-fun |required(ezcsp__eq(nWeight(3),146))| () Bool false)
(define-fun |location(1)| () Bool true)
(define-fun |required(ezcsp__eq(nWeight(2),ezcsp__pl(nWeight(1),19)))| () Bool false)
(define-fun |required(ezcsp__eq(nWeight(6),ezcsp__pl(nWeight(5),34)))| () Bool false)
(define-fun |required(ezcsp__eq(nWeight(1),104))| () Bool false)
(define-fun |required(ezcsp__eq(nWeight(4),ezcsp__pl(nWeight(3),10)))| () Bool false)
(define-fun |required(ezcsp__leq(nWeight(2),ezcsp__mn(ezcsp__pl(52,94),52)))| () Bool false)
(define-fun 152 () Bool true)
(define-fun |required(ezcsp__eq(nWeight(2),136))| () Bool false)
(define-fun 157 () Bool true)
(define-fun 156 () Bool true)
(define-fun |required(ezcsp__eq(nWeight(5),ezcsp__pl(nWeight(4),52)))| () Bool false)
(define-fun |required(ezcsp__eq(nWeight(7),146))| () Bool false)
(define-fun |required(ezcsp__eq(nWeight(1),43))| () Bool false)
(define-fun |required(ezcsp__gt(nWeight(1),ezcsp__mn(ezcsp__pl(77,3),3)))| () Bool false)
(define-fun |required(ezcsp__eq(nWeight(6),174))| () Bool false)
(define-fun |required(ezcsp__eq(nWeight(1),174))| () Bool false)
(define-fun |required(ezcsp__eq(nWeight(4),72))| () Bool false)
(define-fun |required(ezcsp__leq(nWeight(5),ezcsp__mn(ezcsp__pl(82,34),34)))| () Bool false)
(define-fun |leafPos(5,4)| () Bool false)
(define-fun |leafPos(6,7)| () Bool false)
(define-fun |required(ezcsp__eq(nWeight(4),ezcsp__pl(nWeight(3),77)))| () Bool false)
(define-fun |leafPos(8,2)| () Bool false)
(define-fun |required(ezcsp__eq(nWeight(1),125))| () Bool false)
(define-fun |required(ezcsp__leq(nWeight(4),ezcsp__mn(ezcsp__pl(72,0),0)))| () Bool false)
(define-fun |required(ezcsp__gt(nWeight(5),ezcsp__mn(ezcsp__pl(77,3),3)))| () Bool false)
(define-fun |leafPos(4,0)| () Bool false)
(define-fun |leafCost(5,53)| () Bool true)
(define-fun |coloredPos(1)| () Bool true)
(define-fun |required(ezcsp__eq(nWeight(1),52))| () Bool false)
(define-fun |leafPos(2,3)| () Bool false)
(define-fun |innerNode(2)| () Bool true)
(define-fun |required(ezcsp__eq(nWeight(1),129))| () Bool true)
(define-fun 489 () Bool false)
(define-fun 488 () Bool false)
(define-fun 487 () Bool false)
(define-fun 486 () Bool false)
(define-fun 485 () Bool false)
(define-fun 484 () Bool false)
(define-fun 483 () Bool true)
(define-fun 482 () Bool false)
(define-fun 481 () Bool false)
(define-fun 480 () Bool false)
(define-fun |leafPos(7,7)| () Bool false)
(define-fun |leaf(6)| () Bool true)
(define-fun |required(ezcsp__eq(nWeight(6),43))| () Bool false)
(define-fun |required(ezcsp__leq(nWeight(4),ezcsp__mn(ezcsp__pl(97,77),77)))| () Bool false)
(define-fun |required(ezcsp__eq(nWeight(2),72))| () Bool false)
(define-fun |required(ezcsp__gt(nWeight(1),ezcsp__mn(ezcsp__pl(82,34),34)))| () Bool false)
(define-fun |required(ezcsp__eq(nWeight(7),72))| () Bool false)
(define-fun 472 () Bool false)
(define-fun 473 () Bool false)
(define-fun 470 () Bool false)
(define-fun 471 () Bool false)
(define-fun 476 () Bool false)
(define-fun 477 () Bool false)
(define-fun 474 () Bool false)
(define-fun 475 () Bool false)
(define-fun 478 () Bool false)
(define-fun 479 () Bool false)
(define-fun |nWeight(4)| () Int 46)
(define-fun |nWeight(3)| () Int 43)
(define-fun |nWeight(7)| () Int 116)
(define-fun |nWeight(1)| () Int 129)
(define-fun |nWeight(5)| () Int 56)
(define-fun |nWeight(6)| () Int 109)
(define-fun |nWeight(2)| () Int 43)
)
